p cnf 32 46
32 0
-32 31 0
-32 30 0
-31 29 0
-31 -30 0
-29 27 0
-29 -28 0
-27 25 0
-27 -26 0
-25 23 0
-25 -24 0
-23 20 0
-23 22 0
-20 17 19 0
-17 14 16 0
-14 11 13 0
-11 8 10 0
-8 5 7 0
-5 3 0
-5 -4 0
-3 -1 0
-3 -2 0
-7 6 0
-7 4 0
-6 -1 0
-6 -2 0
-10 9 0
-10 -4 0
-9 -1 0
-9 2 0
-13 12 0
-13 4 0
-12 -1 0
-12 2 0
-16 15 0
-16 -4 0
-15 1 0
-15 -2 0
-19 18 0
-19 4 0
-18 1 0
-18 -2 0
-22 21 0
-22 -4 0
-21 -1 0
-21 -2 0
